&GLOBAL
  PROJECT claisen  
  RUN_TYPE MD
  PRINT_LEVEL LOW 
&END GLOBAL

!&EXT_RESTART
!RESTART_FILE_NAME claisen.restart
!&END

&MOTION
  &MD
    ENSEMBLE NVT
    STEPS 1000000
    TIMESTEP 0.5
    TEMPERATURE 300
   &THERMOSTAT
        &CSVR
        TIMECON 100
        &END
   &END THERMOSTAT
  &END MD
  &PRINT
     &VELOCITIES OFF
     &END
     &FORCES
      &EACH
         MD 4000
      &END
     &END
     &TRAJECTORY
      &EACH
         MD 20
      &END
     &END
     &RESTART
      &EACH
          MD 1000
      &END
     &END
     &RESTART_HISTORY
       &EACH
          MD 50000
       &END
     &END
  &END PRINT

 &FREE_ENERGY
    &METADYN
      USE_PLUMED .TRUE.
      PLUMED_INPUT_FILE ./plumed.dat
    &END METADYN
  &END FREE_ENERGY

&END MOTION

&FORCE_EVAL
  METHOD Quickstep
  &DFT
    &QS
      METHOD PM6
    &END QS
    &SCF
    SCF_GUESS ATOMIC
 #   SCF_GUESS RESTART
    &END SCF
  &END DFT
  &SUBSYS
    &CELL
      ABC 15.0 15.0 15.0
      PERIODIC NONE
    &END CELL
    &COORD
  C    -1.4598980496    0.1879861200    1.2373530101
     H    -2.0520119997    0.2878546667    0.3362326702
     H    -1.7684901342   -0.5640421715    1.9528213060
     C    -0.3844066691    0.9324531864    1.5133686513
     H     0.1689543449    0.8049352222    2.4400772927
     O     0.2015797436    1.9097015430    0.7729116957
     C    -0.3550803470    2.2053534434   -0.5166078508
     H     0.4537866349    2.6791767449   -1.0791630377
     H    -0.6113877472    1.2628188141   -1.0209327887
     C    -1.5426299118    3.1224160521   -0.4334690514
     H    -2.3493700084    2.8047440372    0.2234972339
     C    -1.6453237912    4.2595288723   -1.1196487992
     H    -0.8502378790    4.6039074065   -1.7772240326
     H    -2.5290201638    4.8871023339   -1.0570652081
&END COORD
  &END SUBSYS
&END FORCE_EVAL
