&GLOBAL
  PROJECT claisen  
  RUN_TYPE MD
  PRINT_LEVEL LOW 
&END GLOBAL

!&EXT_RESTART
!RESTART_FILE_NAME claisen.restart
!&END

&MOTION
  &MD
    ENSEMBLE NVT
!    STEPS 20000000
    STEPS 40000000
    TIMESTEP 0.5
    TEMPERATURE 300
   &THERMOSTAT
        &CSVR
        TIMECON 100
        &END
   &END THERMOSTAT
  &END MD
  &PRINT
     &VELOCITIES OFF
     &END
     &FORCES
      &EACH
         MD 4000
      &END
     &END
     &TRAJECTORY
      &EACH
         MD 20
      &END
     &END
     &RESTART
      &EACH
          MD 1000
      &END
     &END
     &RESTART_HISTORY
       &EACH
          MD 50000
       &END
     &END
  &END PRINT

 &FREE_ENERGY
    &METADYN
      USE_PLUMED .TRUE.
      PLUMED_INPUT_FILE ./plumed.dat
    &END METADYN
  &END FREE_ENERGY

&END MOTION

&FORCE_EVAL
  METHOD Quickstep
  &DFT
    &QS
      METHOD PM6
    &END QS
    &SCF
    SCF_GUESS ATOMIC
 #   SCF_GUESS RESTART
    &END SCF
  &END DFT
  &SUBSYS
    &CELL
      ABC 15.0 15.0 15.0
      PERIODIC NONE
    &END CELL
    &COORD
 C    -1.1794556339    2.4897687236   -0.5360245700
     H    -2.2513973777    2.7042863098   -0.6666984675
     H    -0.9221003462    1.8295530755   -1.3777219375
     C    -0.4332431195    3.7886085151   -0.7316452014
     H    -0.6311715498    4.2975891581   -1.7029802549
     O     0.3304909485    4.2732007700    0.0743464525
     C    -1.1605509382   -0.6721961435    1.1648049533
     H    -0.0843726261   -0.8258843616    1.1974627797
     H    -1.7820120265   -1.5538305711    1.2892380143
     C    -1.6878516059    0.5388997064    0.9874447548
     H    -2.7739402734    0.6430056800    0.9608467563
     C    -0.9007569402    1.8076497363    0.8100228728
     H    -1.1453444756    2.5171364096    1.6113049996
     H     0.1712949645    1.6053039916    0.8994198478
&END COORD
  &END SUBSYS
&END FORCE_EVAL
